\Problem name: pa36243.lp
\Look for an orthogonal array (packing) with maximum number of 
\runs with parameters #factors=6 #levels=2 strength=4 lambda=3
\each run allowed to appear at most 3 times
\Optimal solution: -44

Minimize
obj:  - x0 - x1 - x2 - x3 - x4 - x5 - x6 - x7 - x8 - x9
 - x10 - x11 - x12 - x13 - x14 - x15 - x16 - x17 - x18 - x19
 - x20 - x21 - x22 - x23 - x24 - x25 - x26 - x27 - x28 - x29
 - x30 - x31 - x32 - x33 - x34 - x35 - x36 - x37 - x38 - x39
 - x40 - x41 - x42 - x43 - x44 - x45 - x46 - x47 - x48 - x49
 - x50 - x51 - x52 - x53 - x54 - x55 - x56 - x57 - x58 - x59
 - x60 - x61 - x62 - x63
Subject To
c0:  x0 + x1 + x2 + x3 <= 3
c1:  x4 + x5 + x6 + x7 <= 3
c2:  x8 + x9 + x10 + x11 <= 3
c3:  x12 + x13 + x14 + x15 <= 3
c4:  x16 + x17 + x18 + x19 <= 3
c5:  x20 + x21 + x22 + x23 <= 3
c6:  x24 + x25 + x26 + x27 <= 3
c7:  x28 + x29 + x30 + x31 <= 3
c8:  x32 + x33 + x34 + x35 <= 3
c9:  x36 + x37 + x38 + x39 <= 3
c10:  x40 + x41 + x42 + x43 <= 3
c11:  x44 + x45 + x46 + x47 <= 3
c12:  x48 + x49 + x50 + x51 <= 3
c13:  x52 + x53 + x54 + x55 <= 3
c14:  x56 + x57 + x58 + x59 <= 3
c15:  x60 + x61 + x62 + x63 <= 3
c16:  x0 + x1 + x4 + x5 <= 3
c17:  x2 + x3 + x6 + x7 <= 3
c18:  x8 + x9 + x12 + x13 <= 3
c19:  x10 + x11 + x14 + x15 <= 3
c20:  x16 + x17 + x20 + x21 <= 3
c21:  x18 + x19 + x22 + x23 <= 3
c22:  x24 + x25 + x28 + x29 <= 3
c23:  x26 + x27 + x30 + x31 <= 3
c24:  x32 + x33 + x36 + x37 <= 3
c25:  x34 + x35 + x38 + x39 <= 3
c26:  x40 + x41 + x44 + x45 <= 3
c27:  x42 + x43 + x46 + x47 <= 3
c28:  x48 + x49 + x52 + x53 <= 3
c29:  x50 + x51 + x54 + x55 <= 3
c30:  x56 + x57 + x60 + x61 <= 3
c31:  x58 + x59 + x62 + x63 <= 3
c32:  x0 + x2 + x4 + x6 <= 3
c33:  x1 + x3 + x5 + x7 <= 3
c34:  x8 + x10 + x12 + x14 <= 3
c35:  x9 + x11 + x13 + x15 <= 3
c36:  x16 + x18 + x20 + x22 <= 3
c37:  x17 + x19 + x21 + x23 <= 3
c38:  x24 + x26 + x28 + x30 <= 3
c39:  x25 + x27 + x29 + x31 <= 3
c40:  x32 + x34 + x36 + x38 <= 3
c41:  x33 + x35 + x37 + x39 <= 3
c42:  x40 + x42 + x44 + x46 <= 3
c43:  x41 + x43 + x45 + x47 <= 3
c44:  x48 + x50 + x52 + x54 <= 3
c45:  x49 + x51 + x53 + x55 <= 3
c46:  x56 + x58 + x60 + x62 <= 3
c47:  x57 + x59 + x61 + x63 <= 3
c48:  x0 + x1 + x8 + x9 <= 3
c49:  x2 + x3 + x10 + x11 <= 3
c50:  x4 + x5 + x12 + x13 <= 3
c51:  x6 + x7 + x14 + x15 <= 3
c52:  x16 + x17 + x24 + x25 <= 3
c53:  x18 + x19 + x26 + x27 <= 3
c54:  x20 + x21 + x28 + x29 <= 3
c55:  x22 + x23 + x30 + x31 <= 3
c56:  x32 + x33 + x40 + x41 <= 3
c57:  x34 + x35 + x42 + x43 <= 3
c58:  x36 + x37 + x44 + x45 <= 3
c59:  x38 + x39 + x46 + x47 <= 3
c60:  x48 + x49 + x56 + x57 <= 3
c61:  x50 + x51 + x58 + x59 <= 3
c62:  x52 + x53 + x60 + x61 <= 3
c63:  x54 + x55 + x62 + x63 <= 3
c64:  x0 + x2 + x8 + x10 <= 3
c65:  x1 + x3 + x9 + x11 <= 3
c66:  x4 + x6 + x12 + x14 <= 3
c67:  x5 + x7 + x13 + x15 <= 3
c68:  x16 + x18 + x24 + x26 <= 3
c69:  x17 + x19 + x25 + x27 <= 3
c70:  x20 + x22 + x28 + x30 <= 3
c71:  x21 + x23 + x29 + x31 <= 3
c72:  x32 + x34 + x40 + x42 <= 3
c73:  x33 + x35 + x41 + x43 <= 3
c74:  x36 + x38 + x44 + x46 <= 3
c75:  x37 + x39 + x45 + x47 <= 3
c76:  x48 + x50 + x56 + x58 <= 3
c77:  x49 + x51 + x57 + x59 <= 3
c78:  x52 + x54 + x60 + x62 <= 3
c79:  x53 + x55 + x61 + x63 <= 3
c80:  x0 + x4 + x8 + x12 <= 3
c81:  x1 + x5 + x9 + x13 <= 3
c82:  x2 + x6 + x10 + x14 <= 3
c83:  x3 + x7 + x11 + x15 <= 3
c84:  x16 + x20 + x24 + x28 <= 3
c85:  x17 + x21 + x25 + x29 <= 3
c86:  x18 + x22 + x26 + x30 <= 3
c87:  x19 + x23 + x27 + x31 <= 3
c88:  x32 + x36 + x40 + x44 <= 3
c89:  x33 + x37 + x41 + x45 <= 3
c90:  x34 + x38 + x42 + x46 <= 3
c91:  x35 + x39 + x43 + x47 <= 3
c92:  x48 + x52 + x56 + x60 <= 3
c93:  x49 + x53 + x57 + x61 <= 3
c94:  x50 + x54 + x58 + x62 <= 3
c95:  x51 + x55 + x59 + x63 <= 3
c96:  x0 + x1 + x16 + x17 <= 3
c97:  x2 + x3 + x18 + x19 <= 3
c98:  x4 + x5 + x20 + x21 <= 3
c99:  x6 + x7 + x22 + x23 <= 3
c100:  x8 + x9 + x24 + x25 <= 3
c101:  x10 + x11 + x26 + x27 <= 3
c102:  x12 + x13 + x28 + x29 <= 3
c103:  x14 + x15 + x30 + x31 <= 3
c104:  x32 + x33 + x48 + x49 <= 3
c105:  x34 + x35 + x50 + x51 <= 3
c106:  x36 + x37 + x52 + x53 <= 3
c107:  x38 + x39 + x54 + x55 <= 3
c108:  x40 + x41 + x56 + x57 <= 3
c109:  x42 + x43 + x58 + x59 <= 3
c110:  x44 + x45 + x60 + x61 <= 3
c111:  x46 + x47 + x62 + x63 <= 3
c112:  x0 + x2 + x16 + x18 <= 3
c113:  x1 + x3 + x17 + x19 <= 3
c114:  x4 + x6 + x20 + x22 <= 3
c115:  x5 + x7 + x21 + x23 <= 3
c116:  x8 + x10 + x24 + x26 <= 3
c117:  x9 + x11 + x25 + x27 <= 3
c118:  x12 + x14 + x28 + x30 <= 3
c119:  x13 + x15 + x29 + x31 <= 3
c120:  x32 + x34 + x48 + x50 <= 3
c121:  x33 + x35 + x49 + x51 <= 3
c122:  x36 + x38 + x52 + x54 <= 3
c123:  x37 + x39 + x53 + x55 <= 3
c124:  x40 + x42 + x56 + x58 <= 3
c125:  x41 + x43 + x57 + x59 <= 3
c126:  x44 + x46 + x60 + x62 <= 3
c127:  x45 + x47 + x61 + x63 <= 3
c128:  x0 + x4 + x16 + x20 <= 3
c129:  x1 + x5 + x17 + x21 <= 3
c130:  x2 + x6 + x18 + x22 <= 3
c131:  x3 + x7 + x19 + x23 <= 3
c132:  x8 + x12 + x24 + x28 <= 3
c133:  x9 + x13 + x25 + x29 <= 3
c134:  x10 + x14 + x26 + x30 <= 3
c135:  x11 + x15 + x27 + x31 <= 3
c136:  x32 + x36 + x48 + x52 <= 3
c137:  x33 + x37 + x49 + x53 <= 3
c138:  x34 + x38 + x50 + x54 <= 3
c139:  x35 + x39 + x51 + x55 <= 3
c140:  x40 + x44 + x56 + x60 <= 3
c141:  x41 + x45 + x57 + x61 <= 3
c142:  x42 + x46 + x58 + x62 <= 3
c143:  x43 + x47 + x59 + x63 <= 3
c144:  x0 + x8 + x16 + x24 <= 3
c145:  x1 + x9 + x17 + x25 <= 3
c146:  x2 + x10 + x18 + x26 <= 3
c147:  x3 + x11 + x19 + x27 <= 3
c148:  x4 + x12 + x20 + x28 <= 3
c149:  x5 + x13 + x21 + x29 <= 3
c150:  x6 + x14 + x22 + x30 <= 3
c151:  x7 + x15 + x23 + x31 <= 3
c152:  x32 + x40 + x48 + x56 <= 3
c153:  x33 + x41 + x49 + x57 <= 3
c154:  x34 + x42 + x50 + x58 <= 3
c155:  x35 + x43 + x51 + x59 <= 3
c156:  x36 + x44 + x52 + x60 <= 3
c157:  x37 + x45 + x53 + x61 <= 3
c158:  x38 + x46 + x54 + x62 <= 3
c159:  x39 + x47 + x55 + x63 <= 3
c160:  x0 + x1 + x32 + x33 <= 3
c161:  x2 + x3 + x34 + x35 <= 3
c162:  x4 + x5 + x36 + x37 <= 3
c163:  x6 + x7 + x38 + x39 <= 3
c164:  x8 + x9 + x40 + x41 <= 3
c165:  x10 + x11 + x42 + x43 <= 3
c166:  x12 + x13 + x44 + x45 <= 3
c167:  x14 + x15 + x46 + x47 <= 3
c168:  x16 + x17 + x48 + x49 <= 3
c169:  x18 + x19 + x50 + x51 <= 3
c170:  x20 + x21 + x52 + x53 <= 3
c171:  x22 + x23 + x54 + x55 <= 3
c172:  x24 + x25 + x56 + x57 <= 3
c173:  x26 + x27 + x58 + x59 <= 3
c174:  x28 + x29 + x60 + x61 <= 3
c175:  x30 + x31 + x62 + x63 <= 3
c176:  x0 + x2 + x32 + x34 <= 3
c177:  x1 + x3 + x33 + x35 <= 3
c178:  x4 + x6 + x36 + x38 <= 3
c179:  x5 + x7 + x37 + x39 <= 3
c180:  x8 + x10 + x40 + x42 <= 3
c181:  x9 + x11 + x41 + x43 <= 3
c182:  x12 + x14 + x44 + x46 <= 3
c183:  x13 + x15 + x45 + x47 <= 3
c184:  x16 + x18 + x48 + x50 <= 3
c185:  x17 + x19 + x49 + x51 <= 3
c186:  x20 + x22 + x52 + x54 <= 3
c187:  x21 + x23 + x53 + x55 <= 3
c188:  x24 + x26 + x56 + x58 <= 3
c189:  x25 + x27 + x57 + x59 <= 3
c190:  x28 + x30 + x60 + x62 <= 3
c191:  x29 + x31 + x61 + x63 <= 3
c192:  x0 + x4 + x32 + x36 <= 3
c193:  x1 + x5 + x33 + x37 <= 3
c194:  x2 + x6 + x34 + x38 <= 3
c195:  x3 + x7 + x35 + x39 <= 3
c196:  x8 + x12 + x40 + x44 <= 3
c197:  x9 + x13 + x41 + x45 <= 3
c198:  x10 + x14 + x42 + x46 <= 3
c199:  x11 + x15 + x43 + x47 <= 3
c200:  x16 + x20 + x48 + x52 <= 3
c201:  x17 + x21 + x49 + x53 <= 3
c202:  x18 + x22 + x50 + x54 <= 3
c203:  x19 + x23 + x51 + x55 <= 3
c204:  x24 + x28 + x56 + x60 <= 3
c205:  x25 + x29 + x57 + x61 <= 3
c206:  x26 + x30 + x58 + x62 <= 3
c207:  x27 + x31 + x59 + x63 <= 3
c208:  x0 + x8 + x32 + x40 <= 3
c209:  x1 + x9 + x33 + x41 <= 3
c210:  x2 + x10 + x34 + x42 <= 3
c211:  x3 + x11 + x35 + x43 <= 3
c212:  x4 + x12 + x36 + x44 <= 3
c213:  x5 + x13 + x37 + x45 <= 3
c214:  x6 + x14 + x38 + x46 <= 3
c215:  x7 + x15 + x39 + x47 <= 3
c216:  x16 + x24 + x48 + x56 <= 3
c217:  x17 + x25 + x49 + x57 <= 3
c218:  x18 + x26 + x50 + x58 <= 3
c219:  x19 + x27 + x51 + x59 <= 3
c220:  x20 + x28 + x52 + x60 <= 3
c221:  x21 + x29 + x53 + x61 <= 3
c222:  x22 + x30 + x54 + x62 <= 3
c223:  x23 + x31 + x55 + x63 <= 3
c224:  x0 + x16 + x32 + x48 <= 3
c225:  x1 + x17 + x33 + x49 <= 3
c226:  x2 + x18 + x34 + x50 <= 3
c227:  x3 + x19 + x35 + x51 <= 3
c228:  x4 + x20 + x36 + x52 <= 3
c229:  x5 + x21 + x37 + x53 <= 3
c230:  x6 + x22 + x38 + x54 <= 3
c231:  x7 + x23 + x39 + x55 <= 3
c232:  x8 + x24 + x40 + x56 <= 3
c233:  x9 + x25 + x41 + x57 <= 3
c234:  x10 + x26 + x42 + x58 <= 3
c235:  x11 + x27 + x43 + x59 <= 3
c236:  x12 + x28 + x44 + x60 <= 3
c237:  x13 + x29 + x45 + x61 <= 3
c238:  x14 + x30 + x46 + x62 <= 3
c239:  x15 + x31 + x47 + x63 <= 3
Bounds
 0 <= x0 <= 3
 0 <= x1 <= 3
 0 <= x2 <= 3
 0 <= x3 <= 3
 0 <= x4 <= 3
 0 <= x5 <= 3
 0 <= x6 <= 3
 0 <= x7 <= 3
 0 <= x8 <= 3
 0 <= x9 <= 3
 0 <= x10 <= 3
 0 <= x11 <= 3
 0 <= x12 <= 3
 0 <= x13 <= 3
 0 <= x14 <= 3
 0 <= x15 <= 3
 0 <= x16 <= 3
 0 <= x17 <= 3
 0 <= x18 <= 3
 0 <= x19 <= 3
 0 <= x20 <= 3
 0 <= x21 <= 3
 0 <= x22 <= 3
 0 <= x23 <= 3
 0 <= x24 <= 3
 0 <= x25 <= 3
 0 <= x26 <= 3
 0 <= x27 <= 3
 0 <= x28 <= 3
 0 <= x29 <= 3
 0 <= x30 <= 3
 0 <= x31 <= 3
 0 <= x32 <= 3
 0 <= x33 <= 3
 0 <= x34 <= 3
 0 <= x35 <= 3
 0 <= x36 <= 3
 0 <= x37 <= 3
 0 <= x38 <= 3
 0 <= x39 <= 3
 0 <= x40 <= 3
 0 <= x41 <= 3
 0 <= x42 <= 3
 0 <= x43 <= 3
 0 <= x44 <= 3
 0 <= x45 <= 3
 0 <= x46 <= 3
 0 <= x47 <= 3
 0 <= x48 <= 3
 0 <= x49 <= 3
 0 <= x50 <= 3
 0 <= x51 <= 3
 0 <= x52 <= 3
 0 <= x53 <= 3
 0 <= x54 <= 3
 0 <= x55 <= 3
 0 <= x56 <= 3
 0 <= x57 <= 3
 0 <= x58 <= 3
 0 <= x59 <= 3
 0 <= x60 <= 3
 0 <= x61 <= 3
 0 <= x62 <= 3
 0 <= x63 <= 3
Integers
x0 x1 x2 x3 x4 x5 x6 x7 x8 x9 
x10 x11 x12 x13 x14 x15 x16 x17 x18 x19 
x20 x21 x22 x23 x24 x25 x26 x27 x28 x29 
x30 x31 x32 x33 x34 x35 x36 x37 x38 x39 
x40 x41 x42 x43 x44 x45 x46 x47 x48 x49 
x50 x51 x52 x53 x54 x55 x56 x57 x58 x59 
x60 x61 x62 x63 
End
